40 26
1 2 3 4 5 6 7 8 9 10 11 12 13 14 15
16 17 18 19 20 21 22 23 24 25 26 27 28 29 30
31 32 33 34 35 36 37 38 39 40
1 5 9 13 17 21 25 29 33 37
2 6 10 14 18 22 26 30 34 38
3 7 11 15 19 23 27 31 35 39
4 8 12 16 20 24 28 32 36 40
1 10 20 30 40
2 9 19 29 39
3 8 18 28 38
4 7 17 27 37
5 6 16 26 36
11 12 13 14 15 16 17 18 19 20
21 22 23 24 25 26 27 28 29 30
31 32 33 34 35
36 37 38 39 40 1 2 3 4 5
10 11 20 21 30 31 40
5 15 25 35
7 14 21 28 35
1 21 40
2 22 39
3 23 38
4 24 37
5 25 36
6 26 35
1 3 5 7 9 11 13 15 17 19
2 4 6 8 10 12 14 16 18 20